784 1568
1 2 4
1 29 1
2 3 1
2 30 4
3 4 1
3 31 1
4 5 4
4 32 1
5 6 2
5 33 5
6 7 4
6 34 3
7 8 2
7 35 1
8 9 4
8 36 5
9 10 2
9 37 4
10 11 3
10 38 5
11 12 1
11 39 4
12 13 2
12 40 4
13 14 4
13 41 4
14 15 1
14 42 4
15 16 5
15 43 4
16 17 5
16 44 1
17 18 2
17 45 4
18 19 2
18 46 5
19 20 4
19 47 1
20 21 1
20 48 5
21 22 4
21 49 3
22 23 3
22 50 4
23 24 1
23 51 1
24 25 5
24 52 2
25 26 3
25 53 5
26 27 5
26 54 5
27 28 5
27 55 1
28 56 1
29 30 3
29 57 2
30 31 5
30 58 1
31 32 5
31 59 4
32 33 2
32 60 1
33 34 3
33 61 2
34 35 5
34 62 1
35 36 3
35 63 1
36 37 5
36 64 2
37 38 1
37 65 5
38 39 2
38 66 5
39 40 1
39 67 3
40 41 2
40 68 5
41 42 4
41 69 2
42 43 5
42 70 3
43 44 4
43 71 3
44 45 4
44 72 1
45 46 2
45 73 1
46 47 2
46 74 3
47 48 5
47 75 1
48 49 5
48 76 4
49 50 2
49 77 3
50 51 5
50 78 3
51 52 2
51 79 4
52 53 2
52 80 1
53 54 3
53 81 5
54 55 5
54 82 4
55 56 5
55 83 5
56 84 5
57 58 1
57 85 5
58 59 1
58 86 2
59 60 2
59 87 3
60 61 4
60 88 2
61 62 3
61 89 3
62 63 2
62 90 2
63 64 5
63 91 2
64 65 3
64 92 1
65 66 2
65 93 5
66 67 3
66 94 3
67 68 3
67 95 1
68 69 4
68 96 1
69 70 1
69 97 5
70 71 2
70 98 5
71 72 5
71 99 1
72 73 3
72 100 1
73 74 4
73 101 2
74 75 2
74 102 3
75 76 5
75 103 1
76 77 4
76 104 5
77 78 5
77 105 2
78 79 3
78 106 1
79 80 4
79 107 3
80 81 3
80 108 4
81 82 1
81 109 4
82 83 4
82 110 4
83 84 3
83 111 2
84 112 5
85 86 3
85 113 3
86 87 5
86 114 3
87 88 4
87 115 2
88 89 2
88 116 4
89 90 1
89 117 5
90 91 5
90 118 2
91 92 1
91 119 3
92 93 4
92 120 5
93 94 4
93 121 1
94 95 3
94 122 3
95 96 4
95 123 3
96 97 3
96 124 2
97 98 5
97 125 2
98 99 4
98 126 4
99 100 2
99 127 3
100 101 2
100 128 1
101 102 5
101 129 3
102 103 3
102 130 2
103 104 5
103 131 5
104 105 2
104 132 5
105 106 4
105 133 3
106 107 1
106 134 4
107 108 3
107 135 4
108 109 1
108 136 3
109 110 4
109 137 3
110 111 5
110 138 3
111 112 3
111 139 5
112 140 5
113 114 4
113 141 4
114 115 2
114 142 3
115 116 4
115 143 4
116 117 5
116 144 4
117 118 3
117 145 4
118 119 5
118 146 5
119 120 4
119 147 3
120 121 5
120 148 2
121 122 4
121 149 4
122 123 2
122 150 3
123 124 4
123 151 2
124 125 4
124 152 5
125 126 1
125 153 1
126 127 5
126 154 2
127 128 5
127 155 3
128 129 4
128 156 2
129 130 2
129 157 1
130 131 2
130 158 1
131 132 3
131 159 4
132 133 1
132 160 2
133 134 2
133 161 3
134 135 2
134 162 5
135 136 2
135 163 1
136 137 4
136 164 4
137 138 5
137 165 4
138 139 2
138 166 1
139 140 3
139 167 1
140 168 4
141 142 3
141 169 4
142 143 4
142 170 5
143 144 5
143 171 1
144 145 2
144 172 2
145 146 3
145 173 4
146 147 4
146 174 1
147 148 2
147 175 3
148 149 3
148 176 4
149 150 1
149 177 4
150 151 2
150 178 2
151 152 5
151 179 3
152 153 3
152 180 3
153 154 4
153 181 1
154 155 5
154 182 2
155 156 1
155 183 3
156 157 5
156 184 5
157 158 3
157 185 2
158 159 5
158 186 3
159 160 1
159 187 3
160 161 3
160 188 5
161 162 2
161 189 2
162 163 5
162 190 4
163 164 4
163 191 2
164 165 2
164 192 3
165 166 1
165 193 5
166 167 2
166 194 1
167 168 3
167 195 4
168 196 3
169 170 2
169 197 2
170 171 4
170 198 5
171 172 3
171 199 2
172 173 3
172 200 2
173 174 1
173 201 5
174 175 3
174 202 3
175 176 1
175 203 4
176 177 2
176 204 4
177 178 5
177 205 2
178 179 1
178 206 5
179 180 2
179 207 3
180 181 4
180 208 2
181 182 3
181 209 5
182 183 5
182 210 1
183 184 5
183 211 5
184 185 5
184 212 5
185 186 1
185 213 5
186 187 3
186 214 5
187 188 2
187 215 5
188 189 2
188 216 1
189 190 1
189 217 2
190 191 2
190 218 4
191 192 3
191 219 2
192 193 4
192 220 3
193 194 1
193 221 1
194 195 4
194 222 2
195 196 1
195 223 2
196 224 3
197 198 4
197 225 2
198 199 1
198 226 1
199 200 2
199 227 3
200 201 2
200 228 1
201 202 3
201 229 5
202 203 5
202 230 2
203 204 1
203 231 4
204 205 1
204 232 5
205 206 3
205 233 4
206 207 1
206 234 2
207 208 2
207 235 2
208 209 5
208 236 5
209 210 1
209 237 3
210 211 3
210 238 4
211 212 2
211 239 5
212 213 4
212 240 3
213 214 1
213 241 3
214 215 2
214 242 4
215 216 1
215 243 5
216 217 4
216 244 5
217 218 3
217 245 5
218 219 1
218 246 4
219 220 1
219 247 4
220 221 3
220 248 1
221 222 4
221 249 3
222 223 1
222 250 2
223 224 2
223 251 5
224 252 5
225 226 2
225 253 3
226 227 1
226 254 4
227 228 5
227 255 5
228 229 5
228 256 4
229 230 2
229 257 1
230 231 3
230 258 5
231 232 3
231 259 3
232 233 1
232 260 3
233 234 4
233 261 3
234 235 5
234 262 4
235 236 4
235 263 2
236 237 3
236 264 3
237 238 5
237 265 1
238 239 5
238 266 2
239 240 5
239 267 5
240 241 2
240 268 5
241 242 1
241 269 4
242 243 4
242 270 4
243 244 5
243 271 5
244 245 1
244 272 2
245 246 4
245 273 5
246 247 1
246 274 2
247 248 4
247 275 3
248 249 1
248 276 5
249 250 1
249 277 5
250 251 5
250 278 1
251 252 1
251 279 1
252 280 4
253 254 2
253 281 5
254 255 2
254 282 3
255 256 3
255 283 3
256 257 4
256 284 4
257 258 4
257 285 4
258 259 1
258 286 2
259 260 2
259 287 3
260 261 3
260 288 2
261 262 2
261 289 1
262 263 4
262 290 4
263 264 1
263 291 5
264 265 3
264 292 1
265 266 2
265 293 3
266 267 2
266 294 5
267 268 1
267 295 2
268 269 1
268 296 4
269 270 4
269 297 2
270 271 4
270 298 5
271 272 3
271 299 5
272 273 2
272 300 1
273 274 1
273 301 1
274 275 5
274 302 2
275 276 3
275 303 1
276 277 4
276 304 5
277 278 1
277 305 1
278 279 2
278 306 2
279 280 5
279 307 5
280 308 2
281 282 5
281 309 4
282 283 5
282 310 3
283 284 5
283 311 1
284 285 5
284 312 2
285 286 4
285 313 1
286 287 3
286 314 1
287 288 5
287 315 5
288 289 1
288 316 4
289 290 2
289 317 5
290 291 2
290 318 1
291 292 3
291 319 2
292 293 3
292 320 3
293 294 3
293 321 2
294 295 2
294 322 2
295 296 4
295 323 3
296 297 2
296 324 4
297 298 3
297 325 2
298 299 2
298 326 4
299 300 4
299 327 4
300 301 5
300 328 4
301 302 4
301 329 1
302 303 3
302 330 4
303 304 5
303 331 3
304 305 1
304 332 5
305 306 5
305 333 5
306 307 3
306 334 3
307 308 5
307 335 3
308 336 1
309 310 1
309 337 3
310 311 2
310 338 1
311 312 5
311 339 3
312 313 5
312 340 1
313 314 4
313 341 3
314 315 2
314 342 2
315 316 2
315 343 3
316 317 2
316 344 2
317 318 5
317 345 1
318 319 3
318 346 3
319 320 2
319 347 2
320 321 2
320 348 1
321 322 1
321 349 3
322 323 5
322 350 5
323 324 3
323 351 1
324 325 2
324 352 3
325 326 5
325 353 1
326 327 2
326 354 4
327 328 5
327 355 5
328 329 3
328 356 2
329 330 2
329 357 1
330 331 2
330 358 1
331 332 5
331 359 1
332 333 4
332 360 5
333 334 1
333 361 5
334 335 3
334 362 5
335 336 4
335 363 3
336 364 3
337 338 2
337 365 5
338 339 1
338 366 5
339 340 5
339 367 5
340 341 4
340 368 5
341 342 3
341 369 3
342 343 2
342 370 3
343 344 1
343 371 3
344 345 2
344 372 4
345 346 5
345 373 3
346 347 3
346 374 4
347 348 4
347 375 3
348 349 5
348 376 4
349 350 1
349 377 2
350 351 2
350 378 3
351 352 3
351 379 1
352 353 1
352 380 4
353 354 1
353 381 5
354 355 1
354 382 5
355 356 2
355 383 3
356 357 2
356 384 4
357 358 2
357 385 5
358 359 4
358 386 1
359 360 2
359 387 1
360 361 2
360 388 3
361 362 4
361 389 5
362 363 2
362 390 5
363 364 3
363 391 4
364 392 1
365 366 4
365 393 1
366 367 2
366 394 4
367 368 2
367 395 1
368 369 1
368 396 3
369 370 5
369 397 5
370 371 4
370 398 5
371 372 3
371 399 1
372 373 2
372 400 2
373 374 3
373 401 1
374 375 5
374 402 2
375 376 2
375 403 3
376 377 4
376 404 3
377 378 4
377 405 2
378 379 1
378 406 2
379 380 3
379 407 3
380 381 4
380 408 5
381 382 1
381 409 5
382 383 2
382 410 3
383 384 3
383 411 1
384 385 5
384 412 4
385 386 3
385 413 4
386 387 5
386 414 2
387 388 5
387 415 5
388 389 3
388 416 2
389 390 3
389 417 4
390 391 3
390 418 3
391 392 4
391 419 3
392 420 5
393 394 1
393 421 1
394 395 4
394 422 3
395 396 1
395 423 3
396 397 4
396 424 3
397 398 4
397 425 1
398 399 4
398 426 1
399 400 5
399 427 4
400 401 2
400 428 4
401 402 4
401 429 5
402 403 5
402 430 2
403 404 2
403 431 5
404 405 1
404 432 3
405 406 4
405 433 3
406 407 1
406 434 1
407 408 2
407 435 2
408 409 5
408 436 5
409 410 3
409 437 4
410 411 1
410 438 2
411 412 3
411 439 2
412 413 2
412 440 4
413 414 3
413 441 5
414 415 3
414 442 5
415 416 5
415 443 1
416 417 4
416 444 4
417 418 4
417 445 1
418 419 5
418 446 2
419 420 5
419 447 1
420 448 4
421 422 1
421 449 2
422 423 3
422 450 1
423 424 1
423 451 3
424 425 2
424 452 4
425 426 4
425 453 3
426 427 2
426 454 3
427 428 5
427 455 4
428 429 1
428 456 4
429 430 4
429 457 5
430 431 1
430 458 4
431 432 2
431 459 5
432 433 3
432 460 4
433 434 2
433 461 2
434 435 5
434 462 3
435 436 3
435 463 3
436 437 4
436 464 2
437 438 5
437 465 5
438 439 5
438 466 2
439 440 1
439 467 2
440 441 5
440 468 4
441 442 2
441 469 2
442 443 3
442 470 5
443 444 4
443 471 2
444 445 2
444 472 4
445 446 4
445 473 4
446 447 3
446 474 1
447 448 1
447 475 1
448 476 3
449 450 1
449 477 1
450 451 3
450 478 1
451 452 5
451 479 1
452 453 5
452 480 1
453 454 1
453 481 3
454 455 3
454 482 3
455 456 3
455 483 3
456 457 1
456 484 4
457 458 4
457 485 2
458 459 1
458 486 1
459 460 4
459 487 5
460 461 3
460 488 2
461 462 1
461 489 3
462 463 3
462 490 5
463 464 3
463 491 1
464 465 2
464 492 4
465 466 4
465 493 2
466 467 4
466 494 4
467 468 1
467 495 2
468 469 5
468 496 2
469 470 5
469 497 2
470 471 5
470 498 4
471 472 1
471 499 5
472 473 3
472 500 5
473 474 5
473 501 3
474 475 1
474 502 5
475 476 2
475 503 1
476 504 3
477 478 1
477 505 3
478 479 1
478 506 3
479 480 2
479 507 2
480 481 1
480 508 4
481 482 5
481 509 4
482 483 5
482 510 1
483 484 5
483 511 5
484 485 5
484 512 3
485 486 1
485 513 4
486 487 1
486 514 3
487 488 4
487 515 1
488 489 3
488 516 3
489 490 4
489 517 3
490 491 3
490 518 5
491 492 4
491 519 4
492 493 4
492 520 4
493 494 5
493 521 1
494 495 2
494 522 3
495 496 4
495 523 3
496 497 4
496 524 5
497 498 4
497 525 1
498 499 5
498 526 2
499 500 4
499 527 5
500 501 3
500 528 3
501 502 4
501 529 4
502 503 2
502 530 4
503 504 3
503 531 4
504 532 4
505 506 2
505 533 3
506 507 4
506 534 3
507 508 3
507 535 1
508 509 2
508 536 5
509 510 2
509 537 1
510 511 4
510 538 3
511 512 3
511 539 3
512 513 5
512 540 3
513 514 2
513 541 4
514 515 2
514 542 3
515 516 3
515 543 1
516 517 3
516 544 3
517 518 1
517 545 4
518 519 2
518 546 4
519 520 4
519 547 2
520 521 5
520 548 2
521 522 1
521 549 3
522 523 5
522 550 1
523 524 3
523 551 3
524 525 1
524 552 4
525 526 4
525 553 3
526 527 5
526 554 5
527 528 2
527 555 2
528 529 2
528 556 1
529 530 5
529 557 3
530 531 4
530 558 3
531 532 5
531 559 2
532 560 2
533 534 4
533 561 2
534 535 5
534 562 4
535 536 3
535 563 4
536 537 4
536 564 3
537 538 4
537 565 3
538 539 1
538 566 1
539 540 3
539 567 3
540 541 2
540 568 4
541 542 1
541 569 1
542 543 2
542 570 5
543 544 3
543 571 3
544 545 5
544 572 3
545 546 1
545 573 2
546 547 1
546 574 2
547 548 3
547 575 2
548 549 5
548 576 2
549 550 2
549 577 1
550 551 5
550 578 2
551 552 2
551 579 4
552 553 3
552 580 5
553 554 1
553 581 1
554 555 3
554 582 1
555 556 4
555 583 3
556 557 1
556 584 3
557 558 4
557 585 1
558 559 2
558 586 5
559 560 5
559 587 1
560 588 4
561 562 1
561 589 3
562 563 5
562 590 2
563 564 2
563 591 4
564 565 3
564 592 3
565 566 2
565 593 3
566 567 5
566 594 2
567 568 5
567 595 3
568 569 4
568 596 5
569 570 3
569 597 3
570 571 4
570 598 4
571 572 4
571 599 5
572 573 5
572 600 1
573 574 5
573 601 4
574 575 1
574 602 5
575 576 1
575 603 2
576 577 3
576 604 5
577 578 3
577 605 1
578 579 4
578 606 4
579 580 2
579 607 1
580 581 4
580 608 5
581 582 2
581 609 1
582 583 3
582 610 4
583 584 2
583 611 2
584 585 3
584 612 1
585 586 3
585 613 5
586 587 5
586 614 5
587 588 3
587 615 3
588 616 3
589 590 4
589 617 1
590 591 4
590 618 5
591 592 1
591 619 5
592 593 5
592 620 2
593 594 5
593 621 3
594 595 2
594 622 5
595 596 5
595 623 1
596 597 2
596 624 1
597 598 2
597 625 3
598 599 1
598 626 2
599 600 2
599 627 5
600 601 1
600 628 1
601 602 5
601 629 4
602 603 5
602 630 4
603 604 3
603 631 4
604 605 3
604 632 1
605 606 5
605 633 4
606 607 4
606 634 5
607 608 1
607 635 2
608 609 2
608 636 3
609 610 5
609 637 3
610 611 5
610 638 5
611 612 5
611 639 4
612 613 4
612 640 1
613 614 4
613 641 3
614 615 3
614 642 2
615 616 1
615 643 3
616 644 5
617 618 5
617 645 4
618 619 1
618 646 5
619 620 5
619 647 2
620 621 1
620 648 5
621 622 5
621 649 1
622 623 5
622 650 1
623 624 2
623 651 5
624 625 2
624 652 1
625 626 1
625 653 4
626 627 2
626 654 5
627 628 4
627 655 1
628 629 4
628 656 1
629 630 3
629 657 5
630 631 4
630 658 3
631 632 2
631 659 5
632 633 2
632 660 5
633 634 2
633 661 1
634 635 2
634 662 2
635 636 3
635 663 3
636 637 1
636 664 3
637 638 4
637 665 5
638 639 4
638 666 4
639 640 2
639 667 1
640 641 2
640 668 3
641 642 2
641 669 1
642 643 2
642 670 3
643 644 4
643 671 2
644 672 2
645 646 4
645 673 2
646 647 5
646 674 1
647 648 4
647 675 3
648 649 3
648 676 4
649 650 4
649 677 4
650 651 4
650 678 1
651 652 3
651 679 3
652 653 5
652 680 1
653 654 1
653 681 4
654 655 4
654 682 1
655 656 1
655 683 4
656 657 5
656 684 3
657 658 4
657 685 3
658 659 3
658 686 4
659 660 5
659 687 4
660 661 2
660 688 4
661 662 2
661 689 5
662 663 4
662 690 1
663 664 5
663 691 2
664 665 5
664 692 4
665 666 1
665 693 2
666 667 3
666 694 4
667 668 1
667 695 2
668 669 1
668 696 2
669 670 5
669 697 5
670 671 5
670 698 1
671 672 3
671 699 3
672 700 2
673 674 2
673 701 1
674 675 1
674 702 3
675 676 5
675 703 3
676 677 5
676 704 4
677 678 5
677 705 3
678 679 2
678 706 2
679 680 5
679 707 3
680 681 4
680 708 2
681 682 2
681 709 3
682 683 3
682 710 4
683 684 2
683 711 3
684 685 2
684 712 5
685 686 5
685 713 2
686 687 2
686 714 1
687 688 1
687 715 1
688 689 4
688 716 5
689 690 3
689 717 3
690 691 5
690 718 1
691 692 3
691 719 5
692 693 1
692 720 2
693 694 4
693 721 1
694 695 4
694 722 3
695 696 5
695 723 5
696 697 2
696 724 4
697 698 5
697 725 4
698 699 2
698 726 4
699 700 2
699 727 3
700 728 3
701 702 1
701 729 5
702 703 2
702 730 3
703 704 2
703 731 4
704 705 1
704 732 2
705 706 4
705 733 1
706 707 1
706 734 1
707 708 2
707 735 4
708 709 4
708 736 2
709 710 4
709 737 5
710 711 4
710 738 1
711 712 5
711 739 5
712 713 4
712 740 5
713 714 3
713 741 3
714 715 3
714 742 1
715 716 3
715 743 4
716 717 4
716 744 4
717 718 1
717 745 1
718 719 4
718 746 5
719 720 1
719 747 1
720 721 5
720 748 5
721 722 5
721 749 3
722 723 3
722 750 5
723 724 1
723 751 4
724 725 3
724 752 2
725 726 3
725 753 4
726 727 4
726 754 4
727 728 3
727 755 4
728 756 2
729 730 3
729 757 4
730 731 1
730 758 2
731 732 5
731 759 5
732 733 3
732 760 4
733 734 5
733 761 1
734 735 4
734 762 5
735 736 5
735 763 1
736 737 2
736 764 5
737 738 5
737 765 2
738 739 4
738 766 5
739 740 4
739 767 4
740 741 2
740 768 4
741 742 2
741 769 5
742 743 3
742 770 4
743 744 5
743 771 3
744 745 5
744 772 2
745 746 5
745 773 4
746 747 3
746 774 5
747 748 3
747 775 5
748 749 4
748 776 4
749 750 1
749 777 2
750 751 5
750 778 4
751 752 2
751 779 2
752 753 4
752 780 3
753 754 3
753 781 4
754 755 3
754 782 1
755 756 3
755 783 5
756 784 3
757 758 3
758 759 1
759 760 2
760 761 2
761 762 5
762 763 3
763 764 4
764 765 3
765 766 2
766 767 1
767 768 1
768 769 4
769 770 2
770 771 1
771 772 2
772 773 3
773 774 5
774 775 4
775 776 1
776 777 5
777 778 5
778 779 1
779 780 3
780 781 5
781 782 2
782 783 4
783 784 2
1 757 5
2 758 4
3 759 2
4 760 4
5 761 2
6 762 2
7 763 1
8 764 3
9 765 2
10 766 5
11 767 5
12 768 3
13 769 1
14 770 5
15 771 5
16 772 5
17 773 5
18 774 2
19 775 4
20 776 3
21 777 2
22 778 5
23 779 5
24 780 1
25 781 1
26 782 1
27 783 4
28 784 2
1 28 5
29 56 2
57 84 1
85 112 3
113 140 3
141 168 1
169 196 5
197 224 5
225 252 4
253 280 5
281 308 1
309 336 3
337 364 5
365 392 2
393 420 4
421 448 3
449 476 1
477 504 2
505 532 4
533 560 2
561 588 5
589 616 4
617 644 4
645 672 1
673 700 1
701 728 4
729 756 5
757 784 2
